114
0 102 78 93 91 100 14 59 22 63 
71 51 26 87 104 52 49 76 96 18 
38 56 28 90 67 88 11 19 1 85 
54 105 57 9 31 60 58 41 6 35 
13 62 39 46 33 20 110 72 92 21 
101 65 73 106 55 107 94 103 69 8 
32 99 84 44 81 4 40 24 64 25 
2 15 12 68 61 83 95 98 109 34 
113 53 48 89 77 29 97 112 17 86 
42 23 111 30 80 70 37 79 27 16 
45 5 74 50 36 75 43 82 108 3 
66 10 7 47 
